c CNF file corresponding to a (partial) station packing problem.
p cnf 6739 184
1 2 3 4 5 6 7 8 9 10 11 12 13 14 0
-1 -2 0
-1 -3 0
-1 -4 0
-1 -5 0
-1 -6 0
-1 -7 0
-1 -8 0
-1 -9 0
-1 -10 0
-1 -11 0
-1 -12 0
-1 -13 0
-1 -14 0
-2 -3 0
-2 -4 0
-2 -5 0
-2 -6 0
-2 -7 0
-2 -8 0
-2 -9 0
-2 -10 0
-2 -11 0
-2 -12 0
-2 -13 0
-2 -14 0
-3 -4 0
-3 -5 0
-3 -6 0
-3 -7 0
-3 -8 0
-3 -9 0
-3 -10 0
-3 -11 0
-3 -12 0
-3 -13 0
-3 -14 0
-4 -5 0
-4 -6 0
-4 -7 0
-4 -8 0
-4 -9 0
-4 -10 0
-4 -11 0
-4 -12 0
-4 -13 0
-4 -14 0
-5 -6 0
-5 -7 0
-5 -8 0
-5 -9 0
-5 -10 0
-5 -11 0
-5 -12 0
-5 -13 0
-5 -14 0
-6 -7 0
-6 -8 0
-6 -9 0
-6 -10 0
-6 -11 0
-6 -12 0
-6 -13 0
-6 -14 0
-7 -8 0
-7 -9 0
-7 -10 0
-7 -11 0
-7 -12 0
-7 -13 0
-7 -14 0
-8 -9 0
-8 -10 0
-8 -11 0
-8 -12 0
-8 -13 0
-8 -14 0
-9 -10 0
-9 -11 0
-9 -12 0
-9 -13 0
-9 -14 0
-10 -11 0
-10 -12 0
-10 -13 0
-10 -14 0
-11 -12 0
-11 -13 0
-11 -14 0
-12 -13 0
-12 -14 0
-13 -14 0
6726 6727 6728 6729 6730 6731 6732 6733 6734 6735 6736 6737 6738 6739 0
-6726 -6727 0
-6726 -6728 0
-6726 -6729 0
-6726 -6730 0
-6726 -6731 0
-6726 -6732 0
-6726 -6733 0
-6726 -6734 0
-6726 -6735 0
-6726 -6736 0
-6726 -6737 0
-6726 -6738 0
-6726 -6739 0
-6727 -6728 0
-6727 -6729 0
-6727 -6730 0
-6727 -6731 0
-6727 -6732 0
-6727 -6733 0
-6727 -6734 0
-6727 -6735 0
-6727 -6736 0
-6727 -6737 0
-6727 -6738 0
-6727 -6739 0
-6728 -6729 0
-6728 -6730 0
-6728 -6731 0
-6728 -6732 0
-6728 -6733 0
-6728 -6734 0
-6728 -6735 0
-6728 -6736 0
-6728 -6737 0
-6728 -6738 0
-6728 -6739 0
-6729 -6730 0
-6729 -6731 0
-6729 -6732 0
-6729 -6733 0
-6729 -6734 0
-6729 -6735 0
-6729 -6736 0
-6729 -6737 0
-6729 -6738 0
-6729 -6739 0
-6730 -6731 0
-6730 -6732 0
-6730 -6733 0
-6730 -6734 0
-6730 -6735 0
-6730 -6736 0
-6730 -6737 0
-6730 -6738 0
-6730 -6739 0
-6731 -6732 0
-6731 -6733 0
-6731 -6734 0
-6731 -6735 0
-6731 -6736 0
-6731 -6737 0
-6731 -6738 0
-6731 -6739 0
-6732 -6733 0
-6732 -6734 0
-6732 -6735 0
-6732 -6736 0
-6732 -6737 0
-6732 -6738 0
-6732 -6739 0
-6733 -6734 0
-6733 -6735 0
-6733 -6736 0
-6733 -6737 0
-6733 -6738 0
-6733 -6739 0
-6734 -6735 0
-6734 -6736 0
-6734 -6737 0
-6734 -6738 0
-6734 -6739 0
-6735 -6736 0
-6735 -6737 0
-6735 -6738 0
-6735 -6739 0
-6736 -6737 0
-6736 -6738 0
-6736 -6739 0
-6737 -6738 0
-6737 -6739 0
-6738 -6739 0
